(set-logic QF_LRA)
(declare-fun T1 () Real )
(declare-fun T2 () Real )
(declare-fun T3 () Real )
(declare-fun T4 () Real )
(declare-fun T5 () Real )
(declare-fun T6 () Real )
(declare-fun T7 () Real )
(declare-fun T8 () Real )
(declare-fun Z () Real )
(declare-fun k () Real )
(assert (let
(( $goal (>= Z k) ))
(let
((
$phi ( and 
(or ( <= ( + T1 48 ) T2 ) ( <= ( + T2 54 ) T1 ) )
(or ( <= ( + T1 80 )  ( + T2 54 ) ) ( <= ( + T2 126 )( + T1 48 ) ) )
(or ( <= ( + T1 109 )  ( + T2 126 ) ) ( <= ( + T2 187 )( + T1 80 ) ) )
(or ( <= ( + T1 156 )  ( + T2 187 ) ) ( <= ( + T2 261 )( + T1 109 ) ) )
(or ( <= ( + T1 204 )  ( + T2 261 ) ) ( <= ( + T2 322 )( + T1 156 ) ) )
(or ( <= ( + T1 220 )  ( + T2 322 ) ) ( <= ( + T2 371 )( + T1 204 ) ) )
(or ( <= ( + T1 268 )  ( + T2 371 ) ) ( <= ( + T2 409 )( + T1 220 ) ) )
(or ( <= ( + T1 269 )  ( + T2 409 ) ) ( <= ( + T2 491 )( + T1 268 ) ) )
(or ( <= ( + T1 273 )  ( + T2 491 ) ) ( <= ( + T2 545 )( + T1 269 ) ) )
(or ( <= ( + T1 288 )  ( + T2 545 ) ) ( <= ( + T2 572 )( + T1 273 ) ) )
(or ( <= ( + T1 48 ) T3 ) ( <= ( + T3 17 ) T1 ) )
(or ( <= ( + T1 80 )  ( + T3 17 ) ) ( <= ( + T3 105 )( + T1 48 ) ) )
(or ( <= ( + T1 109 )  ( + T3 105 ) ) ( <= ( + T3 160 )( + T1 80 ) ) )
(or ( <= ( + T1 156 )  ( + T3 160 ) ) ( <= ( + T3 248 )( + T1 109 ) ) )
(or ( <= ( + T1 204 )  ( + T3 248 ) ) ( <= ( + T3 325 )( + T1 156 ) ) )
(or ( <= ( + T1 220 )  ( + T3 325 ) ) ( <= ( + T3 395 )( + T1 204 ) ) )
(or ( <= ( + T1 268 )  ( + T3 395 ) ) ( <= ( + T3 454 )( + T1 220 ) ) )
(or ( <= ( + T1 269 )  ( + T3 454 ) ) ( <= ( + T3 481 )( + T1 268 ) ) )
(or ( <= ( + T1 273 )  ( + T3 481 ) ) ( <= ( + T3 570 )( + T1 269 ) ) )
(or ( <= ( + T1 288 )  ( + T3 570 ) ) ( <= ( + T3 613 )( + T1 273 ) ) )
(or ( <= ( + T1 48 ) T4 ) ( <= ( + T4 100 ) T1 ) )
(or ( <= ( + T1 80 )  ( + T4 100 ) ) ( <= ( + T4 188 )( + T1 48 ) ) )
(or ( <= ( + T1 109 )  ( + T4 188 ) ) ( <= ( + T4 215 )( + T1 80 ) ) )
(or ( <= ( + T1 156 )  ( + T4 215 ) ) ( <= ( + T4 244 )( + T1 109 ) ) )
(or ( <= ( + T1 204 )  ( + T4 244 ) ) ( <= ( + T4 278 )( + T1 156 ) ) )
(or ( <= ( + T1 220 )  ( + T4 278 ) ) ( <= ( + T4 352 )( + T1 204 ) ) )
(or ( <= ( + T1 268 )  ( + T4 352 ) ) ( <= ( + T4 448 )( + T1 220 ) ) )
(or ( <= ( + T1 269 )  ( + T4 448 ) ) ( <= ( + T4 482 )( + T1 268 ) ) )
(or ( <= ( + T1 273 )  ( + T4 482 ) ) ( <= ( + T4 556 )( + T1 269 ) ) )
(or ( <= ( + T1 288 )  ( + T4 556 ) ) ( <= ( + T4 655 )( + T1 273 ) ) )
(or ( <= ( + T1 48 ) T5 ) ( <= ( + T5 48 ) T1 ) )
(or ( <= ( + T1 80 )  ( + T5 48 ) ) ( <= ( + T5 128 )( + T1 48 ) ) )
(or ( <= ( + T1 109 )  ( + T5 128 ) ) ( <= ( + T5 150 )( + T1 80 ) ) )
(or ( <= ( + T1 156 )  ( + T5 150 ) ) ( <= ( + T5 158 )( + T1 109 ) ) )
(or ( <= ( + T1 204 )  ( + T5 158 ) ) ( <= ( + T5 211 )( + T1 156 ) ) )
(or ( <= ( + T1 220 )  ( + T5 211 ) ) ( <= ( + T5 245 )( + T1 204 ) ) )
(or ( <= ( + T1 268 )  ( + T5 245 ) ) ( <= ( + T5 253 )( + T1 220 ) ) )
(or ( <= ( + T1 269 )  ( + T5 253 ) ) ( <= ( + T5 295 )( + T1 268 ) ) )
(or ( <= ( + T1 273 )  ( + T5 295 ) ) ( <= ( + T5 310 )( + T1 269 ) ) )
(or ( <= ( + T1 288 )  ( + T5 310 ) ) ( <= ( + T5 323 )( + T1 273 ) ) )
(or ( <= ( + T1 48 ) T6 ) ( <= ( + T6 20 ) T1 ) )
(or ( <= ( + T1 80 )  ( + T6 20 ) ) ( <= ( + T6 103 )( + T1 48 ) ) )
(or ( <= ( + T1 109 )  ( + T6 103 ) ) ( <= ( + T6 104 )( + T1 80 ) ) )
(or ( <= ( + T1 156 )  ( + T6 104 ) ) ( <= ( + T6 131 )( + T1 109 ) ) )
(or ( <= ( + T1 204 )  ( + T6 131 ) ) ( <= ( + T6 201 )( + T1 156 ) ) )
(or ( <= ( + T1 220 )  ( + T6 201 ) ) ( <= ( + T6 278 )( + T1 204 ) ) )
(or ( <= ( + T1 268 )  ( + T6 278 ) ) ( <= ( + T6 374 )( + T1 220 ) ) )
(or ( <= ( + T1 269 )  ( + T6 374 ) ) ( <= ( + T6 402 )( + T1 268 ) ) )
(or ( <= ( + T1 273 )  ( + T6 402 ) ) ( <= ( + T6 405 )( + T1 269 ) ) )
(or ( <= ( + T1 288 )  ( + T6 405 ) ) ( <= ( + T6 489 )( + T1 273 ) ) )
(or ( <= ( + T1 48 ) T7 ) ( <= ( + T7 71 ) T1 ) )
(or ( <= ( + T1 80 )  ( + T7 71 ) ) ( <= ( + T7 126 )( + T1 48 ) ) )
(or ( <= ( + T1 109 )  ( + T7 126 ) ) ( <= ( + T7 149 )( + T1 80 ) ) )
(or ( <= ( + T1 156 )  ( + T7 149 ) ) ( <= ( + T7 246 )( + T1 109 ) ) )
(or ( <= ( + T1 204 )  ( + T7 246 ) ) ( <= ( + T7 329 )( + T1 156 ) ) )
(or ( <= ( + T1 220 )  ( + T7 329 ) ) ( <= ( + T7 385 )( + T1 204 ) ) )
(or ( <= ( + T1 268 )  ( + T7 385 ) ) ( <= ( + T7 407 )( + T1 220 ) ) )
(or ( <= ( + T1 269 )  ( + T7 407 ) ) ( <= ( + T7 485 )( + T1 268 ) ) )
(or ( <= ( + T1 273 )  ( + T7 485 ) ) ( <= ( + T7 526 )( + T1 269 ) ) )
(or ( <= ( + T1 288 )  ( + T7 526 ) ) ( <= ( + T7 621 )( + T1 273 ) ) )
(or ( <= ( + T1 48 ) T8 ) ( <= ( + T8 28 ) T1 ) )
(or ( <= ( + T1 80 )  ( + T8 28 ) ) ( <= ( + T8 117 )( + T1 48 ) ) )
(or ( <= ( + T1 109 )  ( + T8 117 ) ) ( <= ( + T8 143 )( + T1 80 ) ) )
(or ( <= ( + T1 156 )  ( + T8 143 ) ) ( <= ( + T8 144 )( + T1 109 ) ) )
(or ( <= ( + T1 204 )  ( + T8 144 ) ) ( <= ( + T8 192 )( + T1 156 ) ) )
(or ( <= ( + T1 220 )  ( + T8 192 ) ) ( <= ( + T8 222 )( + T1 204 ) ) )
(or ( <= ( + T1 268 )  ( + T8 222 ) ) ( <= ( + T8 257 )( + T1 220 ) ) )
(or ( <= ( + T1 269 )  ( + T8 257 ) ) ( <= ( + T8 265 )( + T1 268 ) ) )
(or ( <= ( + T1 273 )  ( + T8 265 ) ) ( <= ( + T8 289 )( + T1 269 ) ) )
(or ( <= ( + T1 288 )  ( + T8 289 ) ) ( <= ( + T8 290 )( + T1 273 ) ) )
(or ( <= ( + T2 54 ) T3 ) ( <= ( + T3 17 ) T2 ) )
(or ( <= ( + T2 126 )  ( + T3 17 ) ) ( <= ( + T3 105 )( + T2 54 ) ) )
(or ( <= ( + T2 187 )  ( + T3 105 ) ) ( <= ( + T3 160 )( + T2 126 ) ) )
(or ( <= ( + T2 261 )  ( + T3 160 ) ) ( <= ( + T3 248 )( + T2 187 ) ) )
(or ( <= ( + T2 322 )  ( + T3 248 ) ) ( <= ( + T3 325 )( + T2 261 ) ) )
(or ( <= ( + T2 371 )  ( + T3 325 ) ) ( <= ( + T3 395 )( + T2 322 ) ) )
(or ( <= ( + T2 409 )  ( + T3 395 ) ) ( <= ( + T3 454 )( + T2 371 ) ) )
(or ( <= ( + T2 491 )  ( + T3 454 ) ) ( <= ( + T3 481 )( + T2 409 ) ) )
(or ( <= ( + T2 545 )  ( + T3 481 ) ) ( <= ( + T3 570 )( + T2 491 ) ) )
(or ( <= ( + T2 572 )  ( + T3 570 ) ) ( <= ( + T3 613 )( + T2 545 ) ) )
(or ( <= ( + T2 54 ) T4 ) ( <= ( + T4 100 ) T2 ) )
(or ( <= ( + T2 126 )  ( + T4 100 ) ) ( <= ( + T4 188 )( + T2 54 ) ) )
(or ( <= ( + T2 187 )  ( + T4 188 ) ) ( <= ( + T4 215 )( + T2 126 ) ) )
(or ( <= ( + T2 261 )  ( + T4 215 ) ) ( <= ( + T4 244 )( + T2 187 ) ) )
(or ( <= ( + T2 322 )  ( + T4 244 ) ) ( <= ( + T4 278 )( + T2 261 ) ) )
(or ( <= ( + T2 371 )  ( + T4 278 ) ) ( <= ( + T4 352 )( + T2 322 ) ) )
(or ( <= ( + T2 409 )  ( + T4 352 ) ) ( <= ( + T4 448 )( + T2 371 ) ) )
(or ( <= ( + T2 491 )  ( + T4 448 ) ) ( <= ( + T4 482 )( + T2 409 ) ) )
(or ( <= ( + T2 545 )  ( + T4 482 ) ) ( <= ( + T4 556 )( + T2 491 ) ) )
(or ( <= ( + T2 572 )  ( + T4 556 ) ) ( <= ( + T4 655 )( + T2 545 ) ) )
(or ( <= ( + T2 54 ) T5 ) ( <= ( + T5 48 ) T2 ) )
(or ( <= ( + T2 126 )  ( + T5 48 ) ) ( <= ( + T5 128 )( + T2 54 ) ) )
(or ( <= ( + T2 187 )  ( + T5 128 ) ) ( <= ( + T5 150 )( + T2 126 ) ) )
(or ( <= ( + T2 261 )  ( + T5 150 ) ) ( <= ( + T5 158 )( + T2 187 ) ) )
(or ( <= ( + T2 322 )  ( + T5 158 ) ) ( <= ( + T5 211 )( + T2 261 ) ) )
(or ( <= ( + T2 371 )  ( + T5 211 ) ) ( <= ( + T5 245 )( + T2 322 ) ) )
(or ( <= ( + T2 409 )  ( + T5 245 ) ) ( <= ( + T5 253 )( + T2 371 ) ) )
(or ( <= ( + T2 491 )  ( + T5 253 ) ) ( <= ( + T5 295 )( + T2 409 ) ) )
(or ( <= ( + T2 545 )  ( + T5 295 ) ) ( <= ( + T5 310 )( + T2 491 ) ) )
(or ( <= ( + T2 572 )  ( + T5 310 ) ) ( <= ( + T5 323 )( + T2 545 ) ) )
(or ( <= ( + T2 54 ) T6 ) ( <= ( + T6 20 ) T2 ) )
(or ( <= ( + T2 126 )  ( + T6 20 ) ) ( <= ( + T6 103 )( + T2 54 ) ) )
(or ( <= ( + T2 187 )  ( + T6 103 ) ) ( <= ( + T6 104 )( + T2 126 ) ) )
(or ( <= ( + T2 261 )  ( + T6 104 ) ) ( <= ( + T6 131 )( + T2 187 ) ) )
(or ( <= ( + T2 322 )  ( + T6 131 ) ) ( <= ( + T6 201 )( + T2 261 ) ) )
(or ( <= ( + T2 371 )  ( + T6 201 ) ) ( <= ( + T6 278 )( + T2 322 ) ) )
(or ( <= ( + T2 409 )  ( + T6 278 ) ) ( <= ( + T6 374 )( + T2 371 ) ) )
(or ( <= ( + T2 491 )  ( + T6 374 ) ) ( <= ( + T6 402 )( + T2 409 ) ) )
(or ( <= ( + T2 545 )  ( + T6 402 ) ) ( <= ( + T6 405 )( + T2 491 ) ) )
(or ( <= ( + T2 572 )  ( + T6 405 ) ) ( <= ( + T6 489 )( + T2 545 ) ) )
(or ( <= ( + T2 54 ) T7 ) ( <= ( + T7 71 ) T2 ) )
(or ( <= ( + T2 126 )  ( + T7 71 ) ) ( <= ( + T7 126 )( + T2 54 ) ) )
(or ( <= ( + T2 187 )  ( + T7 126 ) ) ( <= ( + T7 149 )( + T2 126 ) ) )
(or ( <= ( + T2 261 )  ( + T7 149 ) ) ( <= ( + T7 246 )( + T2 187 ) ) )
(or ( <= ( + T2 322 )  ( + T7 246 ) ) ( <= ( + T7 329 )( + T2 261 ) ) )
(or ( <= ( + T2 371 )  ( + T7 329 ) ) ( <= ( + T7 385 )( + T2 322 ) ) )
(or ( <= ( + T2 409 )  ( + T7 385 ) ) ( <= ( + T7 407 )( + T2 371 ) ) )
(or ( <= ( + T2 491 )  ( + T7 407 ) ) ( <= ( + T7 485 )( + T2 409 ) ) )
(or ( <= ( + T2 545 )  ( + T7 485 ) ) ( <= ( + T7 526 )( + T2 491 ) ) )
(or ( <= ( + T2 572 )  ( + T7 526 ) ) ( <= ( + T7 621 )( + T2 545 ) ) )
(or ( <= ( + T2 54 ) T8 ) ( <= ( + T8 28 ) T2 ) )
(or ( <= ( + T2 126 )  ( + T8 28 ) ) ( <= ( + T8 117 )( + T2 54 ) ) )
(or ( <= ( + T2 187 )  ( + T8 117 ) ) ( <= ( + T8 143 )( + T2 126 ) ) )
(or ( <= ( + T2 261 )  ( + T8 143 ) ) ( <= ( + T8 144 )( + T2 187 ) ) )
(or ( <= ( + T2 322 )  ( + T8 144 ) ) ( <= ( + T8 192 )( + T2 261 ) ) )
(or ( <= ( + T2 371 )  ( + T8 192 ) ) ( <= ( + T8 222 )( + T2 322 ) ) )
(or ( <= ( + T2 409 )  ( + T8 222 ) ) ( <= ( + T8 257 )( + T2 371 ) ) )
(or ( <= ( + T2 491 )  ( + T8 257 ) ) ( <= ( + T8 265 )( + T2 409 ) ) )
(or ( <= ( + T2 545 )  ( + T8 265 ) ) ( <= ( + T8 289 )( + T2 491 ) ) )
(or ( <= ( + T2 572 )  ( + T8 289 ) ) ( <= ( + T8 290 )( + T2 545 ) ) )
(or ( <= ( + T3 17 ) T4 ) ( <= ( + T4 100 ) T3 ) )
(or ( <= ( + T3 105 )  ( + T4 100 ) ) ( <= ( + T4 188 )( + T3 17 ) ) )
(or ( <= ( + T3 160 )  ( + T4 188 ) ) ( <= ( + T4 215 )( + T3 105 ) ) )
(or ( <= ( + T3 248 )  ( + T4 215 ) ) ( <= ( + T4 244 )( + T3 160 ) ) )
(or ( <= ( + T3 325 )  ( + T4 244 ) ) ( <= ( + T4 278 )( + T3 248 ) ) )
(or ( <= ( + T3 395 )  ( + T4 278 ) ) ( <= ( + T4 352 )( + T3 325 ) ) )
(or ( <= ( + T3 454 )  ( + T4 352 ) ) ( <= ( + T4 448 )( + T3 395 ) ) )
(or ( <= ( + T3 481 )  ( + T4 448 ) ) ( <= ( + T4 482 )( + T3 454 ) ) )
(or ( <= ( + T3 570 )  ( + T4 482 ) ) ( <= ( + T4 556 )( + T3 481 ) ) )
(or ( <= ( + T3 613 )  ( + T4 556 ) ) ( <= ( + T4 655 )( + T3 570 ) ) )
(or ( <= ( + T3 17 ) T5 ) ( <= ( + T5 48 ) T3 ) )
(or ( <= ( + T3 105 )  ( + T5 48 ) ) ( <= ( + T5 128 )( + T3 17 ) ) )
(or ( <= ( + T3 160 )  ( + T5 128 ) ) ( <= ( + T5 150 )( + T3 105 ) ) )
(or ( <= ( + T3 248 )  ( + T5 150 ) ) ( <= ( + T5 158 )( + T3 160 ) ) )
(or ( <= ( + T3 325 )  ( + T5 158 ) ) ( <= ( + T5 211 )( + T3 248 ) ) )
(or ( <= ( + T3 395 )  ( + T5 211 ) ) ( <= ( + T5 245 )( + T3 325 ) ) )
(or ( <= ( + T3 454 )  ( + T5 245 ) ) ( <= ( + T5 253 )( + T3 395 ) ) )
(or ( <= ( + T3 481 )  ( + T5 253 ) ) ( <= ( + T5 295 )( + T3 454 ) ) )
(or ( <= ( + T3 570 )  ( + T5 295 ) ) ( <= ( + T5 310 )( + T3 481 ) ) )
(or ( <= ( + T3 613 )  ( + T5 310 ) ) ( <= ( + T5 323 )( + T3 570 ) ) )
(or ( <= ( + T3 17 ) T6 ) ( <= ( + T6 20 ) T3 ) )
(or ( <= ( + T3 105 )  ( + T6 20 ) ) ( <= ( + T6 103 )( + T3 17 ) ) )
(or ( <= ( + T3 160 )  ( + T6 103 ) ) ( <= ( + T6 104 )( + T3 105 ) ) )
(or ( <= ( + T3 248 )  ( + T6 104 ) ) ( <= ( + T6 131 )( + T3 160 ) ) )
(or ( <= ( + T3 325 )  ( + T6 131 ) ) ( <= ( + T6 201 )( + T3 248 ) ) )
(or ( <= ( + T3 395 )  ( + T6 201 ) ) ( <= ( + T6 278 )( + T3 325 ) ) )
(or ( <= ( + T3 454 )  ( + T6 278 ) ) ( <= ( + T6 374 )( + T3 395 ) ) )
(or ( <= ( + T3 481 )  ( + T6 374 ) ) ( <= ( + T6 402 )( + T3 454 ) ) )
(or ( <= ( + T3 570 )  ( + T6 402 ) ) ( <= ( + T6 405 )( + T3 481 ) ) )
(or ( <= ( + T3 613 )  ( + T6 405 ) ) ( <= ( + T6 489 )( + T3 570 ) ) )
(or ( <= ( + T3 17 ) T7 ) ( <= ( + T7 71 ) T3 ) )
(or ( <= ( + T3 105 )  ( + T7 71 ) ) ( <= ( + T7 126 )( + T3 17 ) ) )
(or ( <= ( + T3 160 )  ( + T7 126 ) ) ( <= ( + T7 149 )( + T3 105 ) ) )
(or ( <= ( + T3 248 )  ( + T7 149 ) ) ( <= ( + T7 246 )( + T3 160 ) ) )
(or ( <= ( + T3 325 )  ( + T7 246 ) ) ( <= ( + T7 329 )( + T3 248 ) ) )
(or ( <= ( + T3 395 )  ( + T7 329 ) ) ( <= ( + T7 385 )( + T3 325 ) ) )
(or ( <= ( + T3 454 )  ( + T7 385 ) ) ( <= ( + T7 407 )( + T3 395 ) ) )
(or ( <= ( + T3 481 )  ( + T7 407 ) ) ( <= ( + T7 485 )( + T3 454 ) ) )
(or ( <= ( + T3 570 )  ( + T7 485 ) ) ( <= ( + T7 526 )( + T3 481 ) ) )
(or ( <= ( + T3 613 )  ( + T7 526 ) ) ( <= ( + T7 621 )( + T3 570 ) ) )
(or ( <= ( + T3 17 ) T8 ) ( <= ( + T8 28 ) T3 ) )
(or ( <= ( + T3 105 )  ( + T8 28 ) ) ( <= ( + T8 117 )( + T3 17 ) ) )
(or ( <= ( + T3 160 )  ( + T8 117 ) ) ( <= ( + T8 143 )( + T3 105 ) ) )
(or ( <= ( + T3 248 )  ( + T8 143 ) ) ( <= ( + T8 144 )( + T3 160 ) ) )
(or ( <= ( + T3 325 )  ( + T8 144 ) ) ( <= ( + T8 192 )( + T3 248 ) ) )
(or ( <= ( + T3 395 )  ( + T8 192 ) ) ( <= ( + T8 222 )( + T3 325 ) ) )
(or ( <= ( + T3 454 )  ( + T8 222 ) ) ( <= ( + T8 257 )( + T3 395 ) ) )
(or ( <= ( + T3 481 )  ( + T8 257 ) ) ( <= ( + T8 265 )( + T3 454 ) ) )
(or ( <= ( + T3 570 )  ( + T8 265 ) ) ( <= ( + T8 289 )( + T3 481 ) ) )
(or ( <= ( + T3 613 )  ( + T8 289 ) ) ( <= ( + T8 290 )( + T3 570 ) ) )
(or ( <= ( + T4 100 ) T5 ) ( <= ( + T5 48 ) T4 ) )
(or ( <= ( + T4 188 )  ( + T5 48 ) ) ( <= ( + T5 128 )( + T4 100 ) ) )
(or ( <= ( + T4 215 )  ( + T5 128 ) ) ( <= ( + T5 150 )( + T4 188 ) ) )
(or ( <= ( + T4 244 )  ( + T5 150 ) ) ( <= ( + T5 158 )( + T4 215 ) ) )
(or ( <= ( + T4 278 )  ( + T5 158 ) ) ( <= ( + T5 211 )( + T4 244 ) ) )
(or ( <= ( + T4 352 )  ( + T5 211 ) ) ( <= ( + T5 245 )( + T4 278 ) ) )
(or ( <= ( + T4 448 )  ( + T5 245 ) ) ( <= ( + T5 253 )( + T4 352 ) ) )
(or ( <= ( + T4 482 )  ( + T5 253 ) ) ( <= ( + T5 295 )( + T4 448 ) ) )
(or ( <= ( + T4 556 )  ( + T5 295 ) ) ( <= ( + T5 310 )( + T4 482 ) ) )
(or ( <= ( + T4 655 )  ( + T5 310 ) ) ( <= ( + T5 323 )( + T4 556 ) ) )
(or ( <= ( + T4 100 ) T6 ) ( <= ( + T6 20 ) T4 ) )
(or ( <= ( + T4 188 )  ( + T6 20 ) ) ( <= ( + T6 103 )( + T4 100 ) ) )
(or ( <= ( + T4 215 )  ( + T6 103 ) ) ( <= ( + T6 104 )( + T4 188 ) ) )
(or ( <= ( + T4 244 )  ( + T6 104 ) ) ( <= ( + T6 131 )( + T4 215 ) ) )
(or ( <= ( + T4 278 )  ( + T6 131 ) ) ( <= ( + T6 201 )( + T4 244 ) ) )
(or ( <= ( + T4 352 )  ( + T6 201 ) ) ( <= ( + T6 278 )( + T4 278 ) ) )
(or ( <= ( + T4 448 )  ( + T6 278 ) ) ( <= ( + T6 374 )( + T4 352 ) ) )
(or ( <= ( + T4 482 )  ( + T6 374 ) ) ( <= ( + T6 402 )( + T4 448 ) ) )
(or ( <= ( + T4 556 )  ( + T6 402 ) ) ( <= ( + T6 405 )( + T4 482 ) ) )
(or ( <= ( + T4 655 )  ( + T6 405 ) ) ( <= ( + T6 489 )( + T4 556 ) ) )
(or ( <= ( + T4 100 ) T7 ) ( <= ( + T7 71 ) T4 ) )
(or ( <= ( + T4 188 )  ( + T7 71 ) ) ( <= ( + T7 126 )( + T4 100 ) ) )
(or ( <= ( + T4 215 )  ( + T7 126 ) ) ( <= ( + T7 149 )( + T4 188 ) ) )
(or ( <= ( + T4 244 )  ( + T7 149 ) ) ( <= ( + T7 246 )( + T4 215 ) ) )
(or ( <= ( + T4 278 )  ( + T7 246 ) ) ( <= ( + T7 329 )( + T4 244 ) ) )
(or ( <= ( + T4 352 )  ( + T7 329 ) ) ( <= ( + T7 385 )( + T4 278 ) ) )
(or ( <= ( + T4 448 )  ( + T7 385 ) ) ( <= ( + T7 407 )( + T4 352 ) ) )
(or ( <= ( + T4 482 )  ( + T7 407 ) ) ( <= ( + T7 485 )( + T4 448 ) ) )
(or ( <= ( + T4 556 )  ( + T7 485 ) ) ( <= ( + T7 526 )( + T4 482 ) ) )
(or ( <= ( + T4 655 )  ( + T7 526 ) ) ( <= ( + T7 621 )( + T4 556 ) ) )
(or ( <= ( + T4 100 ) T8 ) ( <= ( + T8 28 ) T4 ) )
(or ( <= ( + T4 188 )  ( + T8 28 ) ) ( <= ( + T8 117 )( + T4 100 ) ) )
(or ( <= ( + T4 215 )  ( + T8 117 ) ) ( <= ( + T8 143 )( + T4 188 ) ) )
(or ( <= ( + T4 244 )  ( + T8 143 ) ) ( <= ( + T8 144 )( + T4 215 ) ) )
(or ( <= ( + T4 278 )  ( + T8 144 ) ) ( <= ( + T8 192 )( + T4 244 ) ) )
(or ( <= ( + T4 352 )  ( + T8 192 ) ) ( <= ( + T8 222 )( + T4 278 ) ) )
(or ( <= ( + T4 448 )  ( + T8 222 ) ) ( <= ( + T8 257 )( + T4 352 ) ) )
(or ( <= ( + T4 482 )  ( + T8 257 ) ) ( <= ( + T8 265 )( + T4 448 ) ) )
(or ( <= ( + T4 556 )  ( + T8 265 ) ) ( <= ( + T8 289 )( + T4 482 ) ) )
(or ( <= ( + T4 655 )  ( + T8 289 ) ) ( <= ( + T8 290 )( + T4 556 ) ) )
(or ( <= ( + T5 48 ) T6 ) ( <= ( + T6 20 ) T5 ) )
(or ( <= ( + T5 128 )  ( + T6 20 ) ) ( <= ( + T6 103 )( + T5 48 ) ) )
(or ( <= ( + T5 150 )  ( + T6 103 ) ) ( <= ( + T6 104 )( + T5 128 ) ) )
(or ( <= ( + T5 158 )  ( + T6 104 ) ) ( <= ( + T6 131 )( + T5 150 ) ) )
(or ( <= ( + T5 211 )  ( + T6 131 ) ) ( <= ( + T6 201 )( + T5 158 ) ) )
(or ( <= ( + T5 245 )  ( + T6 201 ) ) ( <= ( + T6 278 )( + T5 211 ) ) )
(or ( <= ( + T5 253 )  ( + T6 278 ) ) ( <= ( + T6 374 )( + T5 245 ) ) )
(or ( <= ( + T5 295 )  ( + T6 374 ) ) ( <= ( + T6 402 )( + T5 253 ) ) )
(or ( <= ( + T5 310 )  ( + T6 402 ) ) ( <= ( + T6 405 )( + T5 295 ) ) )
(or ( <= ( + T5 323 )  ( + T6 405 ) ) ( <= ( + T6 489 )( + T5 310 ) ) )
(or ( <= ( + T5 48 ) T7 ) ( <= ( + T7 71 ) T5 ) )
(or ( <= ( + T5 128 )  ( + T7 71 ) ) ( <= ( + T7 126 )( + T5 48 ) ) )
(or ( <= ( + T5 150 )  ( + T7 126 ) ) ( <= ( + T7 149 )( + T5 128 ) ) )
(or ( <= ( + T5 158 )  ( + T7 149 ) ) ( <= ( + T7 246 )( + T5 150 ) ) )
(or ( <= ( + T5 211 )  ( + T7 246 ) ) ( <= ( + T7 329 )( + T5 158 ) ) )
(or ( <= ( + T5 245 )  ( + T7 329 ) ) ( <= ( + T7 385 )( + T5 211 ) ) )
(or ( <= ( + T5 253 )  ( + T7 385 ) ) ( <= ( + T7 407 )( + T5 245 ) ) )
(or ( <= ( + T5 295 )  ( + T7 407 ) ) ( <= ( + T7 485 )( + T5 253 ) ) )
(or ( <= ( + T5 310 )  ( + T7 485 ) ) ( <= ( + T7 526 )( + T5 295 ) ) )
(or ( <= ( + T5 323 )  ( + T7 526 ) ) ( <= ( + T7 621 )( + T5 310 ) ) )
(or ( <= ( + T5 48 ) T8 ) ( <= ( + T8 28 ) T5 ) )
(or ( <= ( + T5 128 )  ( + T8 28 ) ) ( <= ( + T8 117 )( + T5 48 ) ) )
(or ( <= ( + T5 150 )  ( + T8 117 ) ) ( <= ( + T8 143 )( + T5 128 ) ) )
(or ( <= ( + T5 158 )  ( + T8 143 ) ) ( <= ( + T8 144 )( + T5 150 ) ) )
(or ( <= ( + T5 211 )  ( + T8 144 ) ) ( <= ( + T8 192 )( + T5 158 ) ) )
(or ( <= ( + T5 245 )  ( + T8 192 ) ) ( <= ( + T8 222 )( + T5 211 ) ) )
(or ( <= ( + T5 253 )  ( + T8 222 ) ) ( <= ( + T8 257 )( + T5 245 ) ) )
(or ( <= ( + T5 295 )  ( + T8 257 ) ) ( <= ( + T8 265 )( + T5 253 ) ) )
(or ( <= ( + T5 310 )  ( + T8 265 ) ) ( <= ( + T8 289 )( + T5 295 ) ) )
(or ( <= ( + T5 323 )  ( + T8 289 ) ) ( <= ( + T8 290 )( + T5 310 ) ) )
(or ( <= ( + T6 20 ) T7 ) ( <= ( + T7 71 ) T6 ) )
(or ( <= ( + T6 103 )  ( + T7 71 ) ) ( <= ( + T7 126 )( + T6 20 ) ) )
(or ( <= ( + T6 104 )  ( + T7 126 ) ) ( <= ( + T7 149 )( + T6 103 ) ) )
(or ( <= ( + T6 131 )  ( + T7 149 ) ) ( <= ( + T7 246 )( + T6 104 ) ) )
(or ( <= ( + T6 201 )  ( + T7 246 ) ) ( <= ( + T7 329 )( + T6 131 ) ) )
(or ( <= ( + T6 278 )  ( + T7 329 ) ) ( <= ( + T7 385 )( + T6 201 ) ) )
(or ( <= ( + T6 374 )  ( + T7 385 ) ) ( <= ( + T7 407 )( + T6 278 ) ) )
(or ( <= ( + T6 402 )  ( + T7 407 ) ) ( <= ( + T7 485 )( + T6 374 ) ) )
(or ( <= ( + T6 405 )  ( + T7 485 ) ) ( <= ( + T7 526 )( + T6 402 ) ) )
(or ( <= ( + T6 489 )  ( + T7 526 ) ) ( <= ( + T7 621 )( + T6 405 ) ) )
(or ( <= ( + T6 20 ) T8 ) ( <= ( + T8 28 ) T6 ) )
(or ( <= ( + T6 103 )  ( + T8 28 ) ) ( <= ( + T8 117 )( + T6 20 ) ) )
(or ( <= ( + T6 104 )  ( + T8 117 ) ) ( <= ( + T8 143 )( + T6 103 ) ) )
(or ( <= ( + T6 131 )  ( + T8 143 ) ) ( <= ( + T8 144 )( + T6 104 ) ) )
(or ( <= ( + T6 201 )  ( + T8 144 ) ) ( <= ( + T8 192 )( + T6 131 ) ) )
(or ( <= ( + T6 278 )  ( + T8 192 ) ) ( <= ( + T8 222 )( + T6 201 ) ) )
(or ( <= ( + T6 374 )  ( + T8 222 ) ) ( <= ( + T8 257 )( + T6 278 ) ) )
(or ( <= ( + T6 402 )  ( + T8 257 ) ) ( <= ( + T8 265 )( + T6 374 ) ) )
(or ( <= ( + T6 405 )  ( + T8 265 ) ) ( <= ( + T8 289 )( + T6 402 ) ) )
(or ( <= ( + T6 489 )  ( + T8 289 ) ) ( <= ( + T8 290 )( + T6 405 ) ) )
(or ( <= ( + T7 71 ) T8 ) ( <= ( + T8 28 ) T7 ) )
(or ( <= ( + T7 126 )  ( + T8 28 ) ) ( <= ( + T8 117 )( + T7 71 ) ) )
(or ( <= ( + T7 149 )  ( + T8 117 ) ) ( <= ( + T8 143 )( + T7 126 ) ) )
(or ( <= ( + T7 246 )  ( + T8 143 ) ) ( <= ( + T8 144 )( + T7 149 ) ) )
(or ( <= ( + T7 329 )  ( + T8 144 ) ) ( <= ( + T8 192 )( + T7 246 ) ) )
(or ( <= ( + T7 385 )  ( + T8 192 ) ) ( <= ( + T8 222 )( + T7 329 ) ) )
(or ( <= ( + T7 407 )  ( + T8 222 ) ) ( <= ( + T8 257 )( + T7 385 ) ) )
(or ( <= ( + T7 485 )  ( + T8 257 ) ) ( <= ( + T8 265 )( + T7 407 ) ) )
(or ( <= ( + T7 526 )  ( + T8 265 ) ) ( <= ( + T8 289 )( + T7 485 ) ) )
(or ( <= ( + T7 621 )  ( + T8 289 ) ) ( <= ( + T8 290 )( + T7 526 ) ) )
( <= ( + T1 288 ) Z)
( <= ( + T2 572 ) Z)
( <= ( + T3 613 ) Z)
( <= ( + T4 655 ) Z)
( <= ( + T5 323 ) Z)
( <= ( + T6 489 ) Z)
( <= ( + T7 621 ) Z)
( <= ( + T8 290 ) Z)
( >= T1 0 )
( >= T2 0 )
( >= T3 0 )
( >= T4 0 )
( >= T5 0 )
( >= T6 0 )
( >= T7 0 )
( >= T8 0 )
) )
)(=> $phi $goal))))